c\nc This is glucose 4.0 --  based on MiniSAT (Many thanks to MiniSAT team)\nc\nc ========================================[ Problem Statistics ]===========================================\nc |                                                                                                       |\nc |  Number of variables:            35                                                                   |\nc |  Number of clauses:             114                                                                   |\nc |  Parse time:                   0.00 s                                                                 |\nc |                                                                                                       |\nc | Preprocesing is fully done\nc |  Eliminated clauses:           0.00 Mb                                                                |\nc |  Simplification time:          0.00 s                                                                 |\nc |                                                                                                       |\nc ========================================[ MAGIC CONSTANTS ]==============================================\nc | Constants are supposed to work well together :-)                                                      |\nc | however, if you find better choices, please let us known...                                           |\nc |-------------------------------------------------------------------------------------------------------|\nc |                                |                                |                                     |\nc | - Restarts:                    | - Reduce Clause DB:            | - Minimize Asserting:               |\nc |   * LBD Queue    :     50      |   * First     :   2000         |    * size <  30                     |\nc |   * Trail  Queue :   5000      |   * Inc       :    300         |    * lbd  <   6                     |\nc |   * K            :   0.80      |   * Special   :   1000         |                                     |\nc |   * R            :   1.40      |   * Protected :  (lbd)< 30     |                                     |\nc |                                |                                |                                     |\nc ==================================[ Search Statistics (every  10000 conflicts) ]=========================\nc |                                                                                                       |\nc |          RESTARTS           |          ORIGINAL         |              LEARNT              | Progress |\nc |       NB   Blocked  Avg Cfc |    Vars  Clauses Literals |   Red   Learnts    LBD2  Removed |          |\nc =========================================================================================================\nc =========================================================================================================\nc restarts              : 1 (32 conflicts in avg)\nc blocked restarts      : 0 (multiple: 0) \nc last block at restart : 0\nc nb ReduceDB           : 0\nc nb removed Clauses    : 0\nc nb learnts DL2        : 6\nc nb learnts size 2     : 2\nc nb learnts size 1     : 3\nc conflicts             : 32             (29575 /sec)\nc decisions             : 31             (0.00 % random) (28651 /sec)\nc propagations          : 150            (138632 /sec)\nc conflict literals     : 143            (6.54 % deleted)\nc nb reduced Clauses    : 1\nc CPU time              : 0.001082 s\n\ns UNSATISFIABLE\n'